CMD:
./solvers/bin/cadical --plain --no-reduce -t 1600 ./data/cnfs//oc8051gm58addr/oc8051gm58addr.95.cnf

c --- [ banner ] -------------------------------------------------------------
c 
c CaDiCaL SAT Solver
c Copyright (c) 2016-2024
c A. Biere, M. Fleury, N. Froleyks, K. Fazekas, F. Pollitt, T. Faller
c JKU Linz, University of Freiburg, TU Wien
c 
c Version 2.1.3 5296d3d2a9bf48c154ab2acb5e44625776d821bf
c g++ (Gentoo 12.3.1_p20230526 p2) 12.3.1 20230526 -Wall -Wextra -O3 -DNDEBUG
c Sat Aug 9 07:26:21 PDT 2025 Linux cedar2.int.cedar.computecanada.ca 5.14.0-362.24.2.el9_3.x86_64 x86_64
c 
c --- [ limit ] --------------------------------------------------------------
c 
c setting time limit to 1600 seconds real time (due to '-t 1600')
c 
c --- [ parsing input ] ------------------------------------------------------
c 
c reading DIMACS file from './data/cnfs//oc8051gm58addr/oc8051gm58addr.95.cnf'
c opening file to read './data/cnfs//oc8051gm58addr/oc8051gm58addr.95.cnf'
c found 'p cnf 1057843 3079653' header
c parsed 3079653 clauses in 0.52 seconds process time
c 
c --- [ options ] ------------------------------------------------------------
c 
c   --compact=false                (different from default 'true')
c   --decompose=false              (different from default 'true')
c   --deduplicate=false            (different from default 'true')
c   --elim=false                   (different from default 'true')
c   --probe=false                  (different from default 'true')
c   --reduce=false                 (different from default 'true')
c   --subsume=false                (different from default 'true')
c   --ternary=false                (different from default 'true')
c   --transred=false               (different from default 'true')
c   --vivify=false                 (different from default 'true')
c 
c --- [ solving ] ------------------------------------------------------------
c 
c time measured in process time since initialization
c 
c  seconds   reductions  redundant   irredundant
c          MB    restarts       trail        variables
c           level   conflicts       glue           remaining
c 
c *  0.52 462  0 0   0    0    0  0% 0 2838085 923937 87%
c {  0.73 472  0 0   0    0    0  0% 0 2838085 923937 87%
c i  0.74 472 108 0   0   23   18 13% 2 2838085 922331 87%
c i  0.74 472 92 0   0   29   21 13% 1 2838085 920928 87%
c i  0.74 472 86 0   0   31   22 13% 1 2838085 920864 87%
c i  0.74 472 83 0   0   32   22 13% 1 2838085 920225 87%
c i  0.74 472 80 0   0   33   22 13% 1 2838085 920216 87%
c i  0.75 472 78 0   0   34   22 13% 1 2838085 920211 87%
c i  0.75 472 71 0   0   37   24 13% 1 2838085 920188 87%
c i  0.94 474 51 0  28  396  334 15% 3 2838085 920119 87%
c }  1.21 475 42 0 128 1006  886 15% 4 2838085 920119 87%
c [  1.21 475  0 0 128 1006  886  0% 0 2838085 920119 87%
c O  1.30 475 347 0 128 1007  887 87% 118 2838085 920119 87%
c ] 19.91 482 339 0 129 3006 2597 40% 60 2838085 920119 87%
c { 19.91 482 42 0 129 3006 2597 15% 4 2838085 920119 87%
c F 19.92 482 42 0 129 3008 2599 15% 4 2838085 920119 87%
c i 19.94 482 40 0 130 3085 2664 15% 4 2838085 920102 87%
c i 20.05 483 49 0 138 3217 2784 16% 4 2838085 920085 87%
c i 20.21 483 47 0 190 3637 3174 16% 4 2838085 920007 87%
c i 20.49 483 44 0 305 4145 3634 16% 4 2838085 919966 87%
c 
c  seconds   reductions  redundant   irredundant
c          MB    restarts       trail        variables
c           level   conflicts       glue           remaining
c 
c # 21.42 483 44 0 554 6010 5346 16% 5 2838085 919966 87%
c i 21.47 483 43 0 570 6170 5467 16% 5 2838085 919924 87%
c i 21.75 484 42 0 680 6751 6010 16% 5 2838085 919908 87%
c } 22.15 484 45 0 722 7006 6250 17% 5 2838085 919908 87%
c [ 22.15 484 339 0 722 7006 6250 40% 60 2838085 919908 87%
c i 22.77 484 283 0 723 7802 7012 37% 51 2838085 919840 87%
c i 22.93 485 243 0 723 8498 7681 33% 44 2838085 919801 87%
c I 23.23 485 182 0 724 10011 9060 28% 36 2838085 919800 87%
c ] 31.55 489 244 0 727 15007 13659 32% 29 2838085 919800 87%
c { 31.55 489 45 0 727 15007 13659 17% 5 2838085 919800 87%
c B 31.60 489 45 0 728 15013 13663 17% 5 2838085 919800 87%
c i 33.52 490 42 0 1424 18780 17075 16% 5 2838085 919784 87%
c W 35.50 490 41 0 1719 21015 18964 17% 6 2629181 919784 87%
c F 40.68 490 45 0 2787 28018 25343 17% 6 2629181 919784 87%
c } 42.42 490 43 0 3212 31010 28083 17% 6 2629181 919784 87%
c [ 42.42 490 244 0 3212 31010 28083 32% 29 2629181 919784 87%
c i 42.57 490 242 0 3212 31166 28228 32% 29 2629181 919768 87%
c i 43.29 490 237 0 3212 31974 28999 32% 28 2629181 919767 87%
c i 45.69 490 220 0 3214 35191 32052 32% 25 2629181 919766 87%
c i 45.69 490 220 0 3214 35193 32053 32% 25 2629181 919765 87%
c 
c  seconds    reductions     redundant    irredundant
c          MB     restarts          trail         variables
c            level     conflicts        glue            remaining
c 
c i 45.73 490 219 0 3214 35319 32169 32% 25 2629181 919760 87%
c B 47.44 490 213 0 3215 36019 32792 31% 24 2629181 919760 87%
c W 61.56 592 393 0 3219 45020 41192 32% 51 2629086 919760 87%
c i 62.33 592 343 0 3220 48067 43246 30% 45 2629086 919719 87%
... skipped 16 lines ...
c 
c  seconds    reductions      redundant   irredundant
c           MB    restarts           trail        variables
c            level     conflicts         glue           remaining
c 
c B 105.62 593 40 0 8541 105029 89583 18% 8 2628200 919403 87%
c i 107.90 593 39 0 8711 108204 92026 18% 8 2628200 919345 87%
c i 108.73 593 39 0 8831 109094 92707 18% 8 2628200 919265 87%
c i 111.77 593 38 0 9099 112727 95756 18% 8 2628200 919185 87%
c i 113.16 593 38 0 9268 114358 96948 18% 8 2628200 919105 87%
c i 113.43 593 38 0 9299 114676 97237 18% 8 2628200 919089 87%
c i 114.53 593 38 0 9455 115717 98054 18% 8 2628200 918943 87%
c i 117.56 593 38 0 9825 118890 100835 18% 8 2628200 918934 87%
c i 117.59 593 38 0 9825 118928 100871 18% 8 2628200 918930 87%
c i 117.59 593 38 0 9825 118929 100871 18% 8 2628200 918929 87%
c i 117.60 593 38 0 9825 118930 100871 18% 8 2628200 918928 87%
c i 117.60 593 38 0 9825 118931 100871 18% 8 2628200 918927 87%
c i 117.61 593 38 0 9825 118932 100871 18% 8 2628200 918926 87%
c i 117.61 593 38 0 9825 118933 100871 18% 8 2628200 918925 87%
c i 117.62 593 38 0 9825 118934 100871 18% 8 2628200 918924 87%
c i 117.62 593 38 0 9825 118935 100871 18% 8 2628200 918923 87%
c i 117.62 593 38 0 9825 118936 100871 18% 8 2628200 918922 87%
c i 117.62 593 38 0 9825 118941 100875 18% 8 2628200 918921 87%
c i 117.63 593 38 0 9825 118945 100878 18% 8 2628200 918918 87%
c W 119.74 594 38 0 9915 120031 81965 18% 8 2625187 918898 87%
c 
c  seconds    reductions       redundant   irredundant
c           MB     restarts           trail        variables
c            level      conflicts         glue           remaining
c 
c i 121.35 594 38 0 10082 121967 83673 18% 8 2625187 918588 87%
c } 124.59 594 41 0 10234 127011 88204 18% 8 2625187 918588 87%
c [ 124.59 594 225 0 10234 127011 88204 26% 31 2625187 918588 87%
c B 134.49 594 196 0 10239 136034 96282 26% 28 2625187 918588 87%
c i 135.74 594 189 0 10241 137887 97660 25% 28 2625187 918584 87%
c W 149.12 598 144 0 10244 153036 105282 23% 24 2623993 918584 87%
c i 150.40 598 140 0 10244 154823 106450 23% 24 2623993 918486 87%
c i 151.28 598 137 0 10244 155896 107007 23% 23 2623993 917716 87%
c i 153.34 598 132 0 10244 158343 108750 23% 23 2623993 915820 87%
c i 153.53 598 131 0 10244 158566 108848 23% 22 2623993 915378 87%
c i 153.58 598 131 0 10244 158654 108888 23% 22 2623993 915234 87%
c i 153.59 598 131 0 10244 158675 108895 23% 22 2623993 913590 86%
c i 153.59 598 131 0 10244 158685 108898 23% 22 2623993 907581 86%
c i 153.59 598 131 0 10244 158688 108900 23% 22 2623993 903759 85%
c ] 153.59 598 131 0 10244 158690 108900 23% 22 2623993 903476 85%
c 0 153.59 598 131 0 10244 158690 108900 23% 22 2623993 903476 85%
c 
c --- [ result ] -------------------------------------------------------------
c 
s UNSATISFIABLE
c 
c --- [ run-time profiling ] -------------------------------------------------
c 
c process time taken by individual solving procedures
c (percentage relative to process time for solving)
c 
c       153.07  100.00% search
c        82.41   53.84% stable
c        66.32   43.32% unstable
c         4.14    2.70% walk
c         0.52    0.34% parse
c         0.21    0.14% lucky
c         0.00    0.00% simplify
c   =================================
c       153.07   99.66% solve
c 
c last line shows process time for solving
c (percentage relative to total process time)
c 
c --- [ statistics ] ---------------------------------------------------------
c 
c chronological:             49471        31.17 %  of conflicts
c conflicts:                158690      1036.72    per second
c decisions:                606348      3961.26    per second
c fixed:                    154321        14.59 %  of all variables
c learned:                  152629        96.18 %  per conflict
c learned_lits:           10570314       100.00 %  learned literals
c minimized:                     0         0.00 %  learned literals
c shrunken:                1841782        17.42 %  learned literals
c minishrunken:            1680976        15.90 %  learned literals
c otfs:                        640         0.40 %  of conflict
c propagations:         1731113354        11.31 M  per second
c rephased:                     17      9334.71    interval
c restarts:                  10244        15.49    interval
c stabilizing:                   4        46.42 %  of conflicts
c subsumed:                  16916         0.57 %  of all clauses
c strengthened:                613         0.02 %  of all clauses
c walked:                        5     31738.00    interval
c 
c seconds are measured in process time for solving
c 
c --- [ resources ] ----------------------------------------------------------
c 
c total process time since initialization:       153.59    seconds
c total real time since initialization:          154.65    seconds
c maximum resident set size of process:          700.33    MB
c 
c --- [ shutting down ] ------------------------------------------------------
c 
c exit 20
